Tried aggregator 1 time.
MIP Presolve eliminated 50 rows and 15 columns.
MIP Presolve modified 126 coefficients.
Reduced MIP has 91 rows, 50 columns, and 266 nonzeros.
Reduced MIP has 42 binaries, 0 generals, 0 SOSs, and 0 indicators.
Presolve time = 0.00 sec. (0.16 ticks)
Probing fixed 0 vars, tightened 3 bounds.
Probing time = 0.03 sec. (0.11 ticks)
Tried aggregator 1 time.
Reduced MIP has 91 rows, 50 columns, and 266 nonzeros.
Reduced MIP has 42 binaries, 0 generals, 0 SOSs, and 0 indicators.
Presolve time = 0.00 sec. (0.13 ticks)
Probing time = 0.00 sec. (0.12 ticks)
Clique table members: 42.
MIP emphasis: balance optimality and feasibility.
MIP search method: dynamic search.
Parallel mode: deterministic, using up to 4 threads.
Root relaxation solution time = 0.05 sec. (0.11 ticks)

        Nodes                                         Cuts/
   Node  Left     Objective  IInf  Best Integer    Best Bound    ItCnt     Gap

      0     0      206.9000    42                    206.9000       42         
*     0+    0                          434.5000      206.9000       42   52.38%
      0     0      206.9000    18      434.5000      Cuts: 45       79   52.38%
*     0+    0                          373.1000      206.9000       79   44.55%
      0     0      206.9000    22      373.1000      Cuts: 43       99   44.55%
*     0+    0                          364.5000      206.9000       99   43.24%
*     0+    0                          301.8000      206.9000       99   31.44%
*     0+    0                          298.3000      206.9000       99   30.64%

Repeating presolve.
Tried aggregator 1 time.
MIP Presolve eliminated 42 rows and 21 columns.
MIP Presolve modified 126 coefficients.
Reduced MIP has 49 rows, 29 columns, and 140 nonzeros.
Reduced MIP has 21 binaries, 0 generals, 0 SOSs, and 0 indicators.
Presolve time = 0.00 sec. (0.14 ticks)
Probing time = 0.00 sec. (0.03 ticks)
Tried aggregator 1 time.
Reduced MIP has 49 rows, 29 columns, and 140 nonzeros.
Reduced MIP has 21 binaries, 0 generals, 0 SOSs, and 0 indicators.
Presolve time = 0.00 sec. (0.07 ticks)
Represolve time = 0.02 sec. (0.32 ticks)
Probing time = 0.00 sec. (0.03 ticks)
MIP emphasis: balance optimality and feasibility.
MIP search method: dynamic search.
Parallel mode: deterministic, using up to 4 threads.
Root relaxation solution time = 0.00 sec. (0.08 ticks)

        Nodes                                         Cuts/
   Node  Left     Objective  IInf  Best Integer    Best Bound    ItCnt     Gap

*     0+    0                          298.3000      206.9000      123   30.64%
      0     0      206.9000    21      298.3000      206.9000      123   30.64%
      0     0      206.9000    11      298.3000       Cuts: 4      129   30.64%
      0     0      206.9000     8      298.3000      Cuts: 32      153   30.64%
*     0+    0                          286.5000      206.9000      153   27.78%
      0     0      206.9000     6      286.5000      Cuts: 23      166   27.78%
*     0+    0                          281.4000      206.9000      166   26.47%
      0     0      206.9000     9      281.4000      Cuts: 18      188   26.47%
*     0+    0                          275.1000      206.9000      188   24.79%
*     0+    0                          273.0000      206.9000      188   24.21%
*     0+    0                          252.4000      206.9000      188   18.03%
      0     0        cutoff            252.4000      252.4000      188    0.00%
Elapsed time = 0.38 sec. (7.94 ticks, tree = 0.00 MB, solutions = 10)

Implied bound cuts applied:  2
Flow cuts applied:  3
Mixed integer rounding cuts applied:  16

Root node processing (before b&c):
  Real time             =    0.38 sec. (7.94 ticks)
Parallel b&c, 4 threads:
  Real time             =    0.00 sec. (0.00 ticks)
  Sync time (average)   =    0.00 sec.
  Wait time (average)   =    0.00 sec.
                          ------------
Total (root+branch&cut) =    0.38 sec. (7.94 ticks)
Node: 0
 0.0  27.9  54.6  42.0  56.5  37.0  30.9  34.1 
Node: 1
 27.9  0.0  67.2  25.6  28.8  48.4  57.4  21.6 
Node: 2
 54.6  67.2  0.0  60.5  95.8  18.8  60.4  52.1 
Node: 3
 42.0  25.6  60.5  0.0  39.4  43.1  70.2  12.2 
Node: 4
 56.5  28.8  95.8  39.4  0.0  77.2  84.5  44.4 
Node: 5
 37.0  48.4  18.8  43.1  77.2  0.0  51.6  34.0 
Node: 6
 30.9  57.4  60.4  70.2  84.5  51.6  0.0  59.3 
Node: 7
 34.1  21.6  52.1  12.2  44.4  34.0  59.3  0.0 

Solution status = Optimal

Problem size: 8
Matrix of time distances is

Makespan 252.39999999999998

The variables t_{i} 
----> Node: 0 is visited at time 0.0<---t[0]
----> Node: 1 is visited at time 224.49999999999991<---t[1]
----> Node: 2 is visited at time 91.3<---t[2]
----> Node: 3 is visited at time 156.29999999999995<---t[3]
----> Node: 4 is visited at time 195.69999999999996<---t[4]
----> Node: 5 is visited at time 110.09999999999995<---t[5]
----> Node: 6 is visited at time 30.900000000000002<---t[6]
----> Node: 7 is visited at time 144.09999999999997<---t[7]
----> Node: 8 is visited at time 252.39999999999998<---t[8]
